aod/lista2/zad1/airport.dat
data;

set company := com1, com2, com3;
set airport := air1, air2, air3, air4;

param demand:= air1 110000 air2 220000 air3 330000 air4 440000;
param supply:= com1 275000 com2 550000 com3 660000;
param price: com1 com2 com3:=
        air1 10 7 8
        air2 10 11 14
        air3 9 12 4
        air4 11 13 9;